Version identifier: 22.1.1.0 | 2022-11-28 | 9160aff4d
CPXPARAM_ClockType                               1
CPXPARAM_Read_DataCheck                          1
CPXPARAM_Threads                                 1
CPXPARAM_TimeLimit                               7200
CPXPARAM_MIP_Tolerances_AbsMIPGap                0
CPXPARAM_MIP_Tolerances_MIPGap                   0
CPXPARAM_MIP_Tolerances_Integrality              0
Tried aggregator 2 times.
MIP Presolve eliminated 88623 rows and 5672 columns.
MIP Presolve modified 5056 coefficients.
Aggregator did 1032 substitutions.
Reduced MIP has 2222 rows, 2580 columns, and 10088 nonzeros.
Reduced MIP has 2580 binaries, 0 generals, 0 SOSs, and 0 indicators.
Presolve time = 0.13 sec. (88.29 ticks)
Found incumbent of value -2044.000000 after 0.15 sec. (104.64 ticks)
Probing time = 0.01 sec. (3.74 ticks)
Tried aggregator 1 time.
Detecting symmetries...
MIP Presolve eliminated 2 rows and 0 columns.
MIP Presolve modified 48 coefficients.
Reduced MIP has 2220 rows, 2580 columns, and 10014 nonzeros.
Reduced MIP has 2580 binaries, 0 generals, 0 SOSs, and 0 indicators.
Presolve time = 0.02 sec. (8.45 ticks)
Probing time = 0.01 sec. (3.67 ticks)
Clique table members: 6729.
MIP emphasis: balance optimality and feasibility.
MIP search method: dynamic search.
Parallel mode: none, using 1 thread.
Root relaxation solution time = 0.20 sec. (164.62 ticks)

        Nodes                                         Cuts/
   Node  Left     Objective  IInf  Best Integer    Best Bound    ItCnt     Gap

*     0+    0                        -2044.0000      516.0000           125.24%
      0     0       68.0000   725    -2044.0000       68.0000     2431  103.33%
      0     0       68.0000   484    -2044.0000      Cuts: 19     2542  103.33%
      0     0       68.0000   638    -2044.0000     Cuts: 121     4699  103.33%
      0     0       68.0000   528    -2044.0000   ZeroHalf: 1     4729  103.33%
*     0+    0                           20.0000       68.0000           240.00%
      0     0        cutoff             20.0000       68.0000     4729  240.00%
      0     0       68.0000   604       20.0000  ZeroHalf: 47     5147  240.00%
*     0+    0                           24.0000       68.0000           183.33%
      0     2       68.0000   517       24.0000       68.0000     5147  183.33%
Elapsed time = 4.62 sec. (3525.11 ticks, tree = 0.01 MB, solutions = 3)
      1     3       68.0000   621       24.0000       68.0000     9471  183.33%
      2     4       68.0000   671       24.0000       68.0000    11706  183.33%
      4     6       68.0000   564       24.0000       68.0000    14002  183.33%
     13    15       68.0000   414       24.0000       68.0000    16406  183.33%
     36    18       68.0000   354       24.0000       68.0000    19401  183.33%
     65    19       66.5000   322       24.0000       68.0000    23149  183.33%
    103    33       55.0000   241       24.0000       68.0000    25998  183.33%
    130    34       68.0000   451       24.0000       68.0000    28634  183.33%
    161    47       67.6667   331       24.0000       68.0000    32446  183.33%
    341    59       57.6667   244       24.0000       68.0000    48960  183.33%
Elapsed time = 9.03 sec. (6979.41 ticks, tree = 0.23 MB, solutions = 3)
    479   113       68.0000   405       24.0000       68.0000    61642  183.33%
    600   120    infeasible             24.0000       68.0000    75640  183.33%
    613   123       67.0000   463       24.0000       68.0000    81711  183.33%
    624   126    infeasible             24.0000       68.0000    89906  183.33%
    637   131       68.0000   550       24.0000       68.0000    95320  183.33%
    657   147    infeasible             24.0000       68.0000   101169  183.33%
*   676    92      integral     0       66.0000       68.0000   108130    3.03%
    687    95       68.0000   280       66.0000       68.0000   109517    3.03%
    750   126        cutoff             66.0000       68.0000   118792    3.03%
    851   153        cutoff             66.0000       68.0000   129089    3.03%
    956   161       68.0000   227       66.0000       68.0000   141390    3.03%
Elapsed time = 23.31 sec. (16725.89 ticks, tree = 2.14 MB, solutions = 4)
   1040   157       68.0000   207       66.0000       68.0000   153998    3.03%
   1129   154       68.0000   208       66.0000       68.0000   166873    3.03%
   1218   166       67.0000   208       66.0000       68.0000   179211    3.03%
   1327   190       67.0000   186       66.0000       68.0000   192122    3.03%
   1441   226       68.0000   216       66.0000       68.0000   204262    3.03%
   1525   224       68.0000   241       66.0000       68.0000   216795    3.03%

Performing restart 1

Repeating presolve.
Tried aggregator 1 time.
MIP Presolve eliminated 516 rows and 1032 columns.
Reduced MIP has 1704 rows, 1548 columns, and 7950 nonzeros.
Reduced MIP has 1548 binaries, 0 generals, 0 SOSs, and 0 indicators.
Presolve time = 0.00 sec. (4.92 ticks)
Tried aggregator 2 times.
MIP Presolve eliminated 16 rows and 14 columns.
MIP Presolve modified 16 coefficients.
Aggregator did 2 substitutions.
Reduced MIP has 1686 rows, 1532 columns, and 7866 nonzeros.
Reduced MIP has 1532 binaries, 0 generals, 0 SOSs, and 0 indicators.
Presolve time = 0.02 sec. (10.37 ticks)
Tried aggregator 1 time.
MIP Presolve eliminated 2 rows and 3 columns.
Reduced MIP has 1684 rows, 1529 columns, and 7860 nonzeros.
Reduced MIP has 1529 binaries, 0 generals, 0 SOSs, and 0 indicators.
Presolve time = 0.01 sec. (6.02 ticks)
Represolve time = 0.14 sec. (74.41 ticks)
   1562     0       68.0000   587       66.0000      Cuts: 27   224355    3.03%
   1562     0       68.0000   652       66.0000     Cuts: 169   224988    3.03%
   1562     0       68.0000   480       66.0000       Cuts: 5   225181    3.03%
   1562     0       68.0000   645       66.0000     Cuts: 194   225870    3.03%
   1562     0       68.0000   470       66.0000       Cuts: 2   225952    3.03%
   1562     0       68.0000   497       66.0000     Cuts: 164   226562    3.03%
   1562     0       68.0000   500       66.0000      Cuts: 99   227070    3.03%
   1562     2       68.0000   458       66.0000       68.0000   227070    3.03%
   1564     4       68.0000   545       66.0000       68.0000   234773    3.03%
   1575     5       68.0000   508       66.0000       68.0000   238558    3.03%
   1588    11       67.5000   338       66.0000       68.0000   241009    3.03%
Elapsed time = 41.32 sec. (30254.42 ticks, tree = 0.10 MB, solutions = 4)
   1638    38    infeasible             66.0000       68.0000   244967    3.03%
   1652    38       68.0000   420       66.0000       68.0000   249875    3.03%
   1687    58       68.0000   353       66.0000       68.0000   255342    3.03%
   1725    72       67.9500   418       66.0000       68.0000   264005    3.03%
   1768    88       67.0000   285       66.0000       68.0000   273083    3.03%
   1793    91       67.0000   268       66.0000       68.0000   282062    3.03%
   1822    87       68.0000   471       66.0000       68.0000   289623    3.03%
   1836    96       67.0000   286       66.0000       68.0000   298542    3.03%
   1860   107       67.0000   309       66.0000       68.0000   305772    3.03%
   1885    93        cutoff             66.0000       68.0000   316561    3.03%
Elapsed time = 54.33 sec. (40241.26 ticks, tree = 1.26 MB, solutions = 4)
   1916   116       68.0000   355       66.0000       68.0000   319907    3.03%
   1951   123        cutoff             66.0000       68.0000   326871    3.03%
   1981   126       67.0000   172       66.0000       68.0000   333746    3.03%
   2019   130       67.0000   399       66.0000       68.0000   340461    3.03%
   2047   113    infeasible             66.0000       68.0000   348762    3.03%
   2071   118       67.0000   491       66.0000       68.0000   354382    3.03%
   2102   131        cutoff             66.0000       68.0000   360418    3.03%
   2138   119       67.0000   191       66.0000       67.0000   366727    1.52%
   2193    98        cutoff             66.0000       67.0000   374090    1.52%
   2235    82       67.0000   338       66.0000       67.0000   382768    1.52%
Elapsed time = 67.30 sec. (49942.59 ticks, tree = 1.11 MB, solutions = 4)
   2287    90        cutoff             66.0000       67.0000   391831    1.52%
   2349    65        cutoff             66.0000       67.0000   400354    1.52%
   2394    42        cutoff             66.0000       67.0000   408134    1.52%
   2446    46        cutoff             66.0000       67.0000   415052    1.52%
   2515    37       67.0000   307       66.0000       67.0000   423248    1.52%
   2551    25       67.0000   391       66.0000       67.0000   433639    1.52%
   2581    25        cutoff             66.0000       67.0000   440130    1.52%
   2622    27        cutoff             66.0000       67.0000   447164    1.52%
   2664    28       67.0000   284       66.0000       67.0000   454648    1.52%
   2738    28        cutoff             66.0000       67.0000   462801    1.52%
Elapsed time = 80.65 sec. (59614.78 ticks, tree = 0.34 MB, solutions = 4)
   2782    27        cutoff             66.0000       67.0000   470468    1.52%
   2841    23       67.0000   391       66.0000       67.0000   479870    1.52%
   2897    27        cutoff             66.0000       67.0000   489436    1.52%
   2951    33       67.0000   358       66.0000       67.0000   497582    1.52%
   3029    29       67.0000   385       66.0000       67.0000   506308    1.52%
   3092    26       67.0000   398       66.0000       67.0000   514101    1.52%
   3150    24       67.0000   425       66.0000       67.0000   521362    1.52%
   3187    21        cutoff             66.0000       67.0000   529798    1.52%
   3276    24       67.0000   261       66.0000       67.0000   538163    1.52%
   3346    16        cutoff             66.0000       67.0000   546789    1.52%
Elapsed time = 94.09 sec. (69313.79 ticks, tree = 0.18 MB, solutions = 4)
   3362    14       67.0000   427       66.0000       67.0000   550017    1.52%
   3445    23       67.0000   241       66.0000       67.0000   556752    1.52%
   3533    27       67.0000   194       66.0000       67.0000   564884    1.52%
   3602    19       67.0000   415       66.0000       67.0000   573029    1.52%
   3670    24        cutoff             66.0000       67.0000   581220    1.52%
   3730    24       67.0000   281       66.0000       67.0000   590324    1.52%
   3839    17        cutoff             66.0000       67.0000   601894    1.52%
   3867    17       67.0000   368       66.0000       67.0000   610460    1.52%
   3921    23       67.0000   206       66.0000       67.0000   619380    1.52%
   3984    20       67.0000   337       66.0000       67.0000   629808    1.52%
Elapsed time = 107.92 sec. (79228.78 ticks, tree = 0.23 MB, solutions = 4)
   4028    24       67.0000   320       66.0000       67.0000   638275    1.52%
   4053    19       67.0000   249       66.0000       67.0000   647896    1.52%
   4110    22       67.0000   351       66.0000       67.0000   655154    1.52%
   4163    21        cutoff             66.0000       67.0000   664269    1.52%
   4237    25       67.0000   304       66.0000       67.0000   671865    1.52%
   4262    24       67.0000   302       66.0000       67.0000   672832    1.52%
   4374    17        cutoff             66.0000       67.0000   682176    1.52%
   4396    19        cutoff             66.0000       67.0000   695419    1.52%
   4422    19        cutoff             66.0000       67.0000   703859    1.52%
   4464    17       67.0000   426       66.0000       67.0000   712953    1.52%
Elapsed time = 121.89 sec. (89594.90 ticks, tree = 0.18 MB, solutions = 4)
   4540    18       67.0000   453       66.0000       67.0000   720956    1.52%
   4627    19        cutoff             66.0000       67.0000   729035    1.52%
   4671    29       67.0000   380       66.0000       67.0000   737604    1.52%
   4772    27        cutoff             66.0000       67.0000   746237    1.52%
   4798    29       67.0000   303       66.0000       67.0000   756223    1.52%
   4864    31       67.0000   422       66.0000       67.0000   764586    1.52%
   4902    31       67.0000   380       66.0000       67.0000   773689    1.52%
   4975    37       67.0000   365       66.0000       67.0000   783620    1.52%
   5038    48        cutoff             66.0000       67.0000   793706    1.52%
   5170    34        cutoff             66.0000       67.0000   835090    1.52%
Elapsed time = 139.36 sec. (102264.40 ticks, tree = 0.44 MB, solutions = 4)
   5435    16        cutoff             66.0000       67.0000   870001    1.52%
   5790    29       67.0000   246       66.0000       67.0000   902090    1.52%
   6088    28       67.0000   229       66.0000       67.0000   936492    1.52%
   6262    17       67.0000   393       66.0000       67.0000   972418    1.52%
   6592    26       67.0000   217       66.0000       67.0000  1007315    1.52%
   7014    16       67.0000   257       66.0000       67.0000  1043391    1.52%
   7408    15       67.0000   375       66.0000       67.0000  1077395    1.52%
   7538    11        cutoff             66.0000       67.0000  1109577    1.52%
   7662    14       67.0000   380       66.0000       67.0000  1133343    1.52%
   7760    22       67.0000   264       66.0000       67.0000  1168844    1.52%
Elapsed time = 193.75 sec. (140849.94 ticks, tree = 0.27 MB, solutions = 4)
   7837     6        cutoff             66.0000       67.0000  1205247    1.52%

GUB cover cuts applied:  1
Clique cuts applied:  23
Zero-half cuts applied:  37

Root node processing (before b&c):
  Real time             =    4.55 sec. (3495.61 ticks)
Sequential b&c:
  Real time             =  195.62 sec. (142227.13 ticks)
                          ------------
Total (root+branch&cut) =  200.17 sec. (145722.74 ticks)
Solution is feasible.

---------------------
@@@ MIP_optimal
>>> Benchmark mc2024_track1_150.cnf k 2 OPT 66 TimeCost 218.14494132995605 TimeSolve 201.10887479782104 TimeRead 0.06867313385009766 TimeTrans 16.967393398284912
